
Gurobi 6.5.2 (linux64) logging started Tue Jun  6 17:24:16 2017

Changed value of parameter LogFile to test_cases/mip_solutions/chen_grossman_miller/transshipment/balanced8_gurobi.log
   Prev: gurobi.log  Default: 
Changed value of parameter Threads to 1
   Prev: 0  Min: 0  Max: 1024  Default: 0
Optimize a model with 398 rows, 1702 columns and 4835 nonzeros
Coefficient statistics:
  Matrix range    [1e+00, 5e+02]
  Objective range [1e+00, 1e+00]
  Bounds range    [1e+00, 1e+00]
  RHS range       [1e+00, 2e+02]
Presolve removed 190 rows and 1130 columns
Presolve time: 0.00s
Presolved: 208 rows, 572 columns, 1494 nonzeros
Variable types: 490 continuous, 82 integer (82 binary)

Root relaxation: objective 1.275527e+01, 1003 iterations, 0.01 seconds

    Nodes    |    Current Node    |     Objective Bounds      |     Work
 Expl Unexpl |  Obj  Depth IntInf | Incumbent    BestBd   Gap | It/Node Time

     0     0   12.75527    0   23          -   12.75527      -     -    0s
H    0     0                      27.0000000   12.75527  52.8%     -    0s
     0     0   13.77281    0   41   27.00000   13.77281  49.0%     -    0s
     0     0   13.83341    0   37   27.00000   13.83341  48.8%     -    0s
     0     0   14.11442    0   46   27.00000   14.11442  47.7%     -    0s
     0     0   14.53655    0   50   27.00000   14.53655  46.2%     -    0s
     0     0   15.80427    0   47   27.00000   15.80427  41.5%     -    0s
     0     0   15.90589    0   46   27.00000   15.90589  41.1%     -    0s
     0     0   16.08240    0   46   27.00000   16.08240  40.4%     -    0s
     0     0   16.12338    0   43   27.00000   16.12338  40.3%     -    0s
     0     0   16.24006    0   45   27.00000   16.24006  39.9%     -    0s
     0     0   16.26343    0   42   27.00000   16.26343  39.8%     -    0s
     0     0   16.39175    0   48   27.00000   16.39175  39.3%     -    0s
     0     0   16.41980    0   43   27.00000   16.41980  39.2%     -    0s
     0     0   16.43610    0   44   27.00000   16.43610  39.1%     -    0s
     0     0   16.44209    0   47   27.00000   16.44209  39.1%     -    0s
     0     0   16.45236    0   45   27.00000   16.45236  39.1%     -    0s
     0     0   16.45236    0   42   27.00000   16.45236  39.1%     -    0s
     0     2   16.45459    0   42   27.00000   16.45459  39.1%     -    0s
H   88    81                      26.0000000   16.54046  36.4%  68.0    0s
H   94    87                      25.0000000   16.54046  33.8%  63.9    0s
H  162   144                      24.0000000   16.54784  31.1%  67.1    0s
H  527   398                      21.0000000   17.50000  16.7%  83.2    2s
   658   454   17.98105   14   42   21.00000   17.97638  14.4%   133    5s
  1289   611   18.32901   27   37   21.00000   18.00000  14.3%   150   10s
  2038   822   18.62963   21   32   21.00000   18.10076  13.8%   148   15s
  2578  1045   19.99922   34   25   21.00000   18.19033  13.4%   151   20s
  3281  1337   19.38095   22   41   21.00000   18.28306  12.9%   150   25s
  3964  1585   19.98645   31   27   21.00000   18.35831  12.6%   149   30s
  4760  1910   19.30142   26   33   21.00000   18.45798  12.1%   145   35s
  5460  2170   19.03778   26   31   21.00000   18.51021  11.9%   144   40s
  6188  2431   19.62347   23   32   21.00000   18.56266  11.6%   143   45s
  6847  2673   20.00000   25   38   21.00000   18.59847  11.4%   143   50s
  7666  2936   19.14117   22   35   21.00000   18.68295  11.0%   141   55s
  8385  3166   19.81729   29   31   21.00000   18.76563  10.6%   140   60s
  9215  3383     cutoff   30        21.00000   18.84608  10.3%   137   65s
 10061  3588   19.54574   25   32   21.00000   18.93012  9.86%   136   70s
 10203  3618   19.53850   23   42   21.00000   18.94176  9.80%   135   77s
 10244  3645   19.50000   25   37   21.00000   18.94176  9.80%   134   80s
 10284  3672   19.50000   25   38   21.00000   18.94176  9.80%   134   85s
 10312  3691   19.55634   34   37   21.00000   18.94176  9.80%   133   90s
 10332  3704   19.55634   34   46   21.00000   18.94176  9.80%   133   95s
 10348  3715   19.19505   27   48   21.00000   18.94176  9.80%   133  100s
 10410  3734   18.94176   24   46   21.00000   18.94176  9.80%   157  107s
 10564  3799   18.94176   37   27   21.00000   18.94176  9.80%   158  110s
 10910  3868   18.94176   26   40   21.00000   18.94176  9.80%   158  115s
 11256  3943   18.94176   31   36   21.00000   18.94176  9.80%   160  120s
 11680  3977   18.94176   30   38   21.00000   18.94176  9.80%   161  125s
 12234  4015   20.00000   38   29   21.00000   18.94176  9.80%   162  130s
 12641  4044   19.89328   37   29   21.00000   18.94176  9.80%   163  135s
 13003  4033     cutoff   37        21.00000   18.94176  9.80%   165  140s
 13351  4026   18.94176   34   31   21.00000   18.94176  9.80%   166  145s
 13770  4013   18.94176   29   45   21.00000   18.94176  9.80%   168  150s
 14210  4005   18.94176   31   40   21.00000   18.94176  9.80%   168  155s
 14606  4002   19.66228   39   22   21.00000   18.94176  9.80%   169  160s
 15006  4002   20.00000   39   35   21.00000   18.94176  9.80%   171  165s
 15367  3967   19.34668   33   32   21.00000   18.94176  9.80%   171  170s
 15676  3941     cutoff   35        21.00000   18.94176  9.80%   173  175s
 16090  3903     cutoff   38        21.00000   18.94176  9.80%   174  180s
 16576  3853     cutoff   32        21.00000   18.94176  9.80%   174  185s
 16909  3842   19.75031   40   26   21.00000   18.94176  9.80%   175  190s
 17233  3791   19.48979   39   32   21.00000   18.94176  9.80%   176  195s
 17677  3732   19.20586   35   32   21.00000   18.94176  9.80%   176  200s
 18026  3694     cutoff   34        21.00000   18.94176  9.80%   177  205s
 18345  3666     cutoff   37        21.00000   18.94176  9.80%   177  210s
 18660  3637   19.58454   33   33   21.00000   18.95266  9.75%   179  215s
 18989  3580   19.76529   33   30   21.00000   18.96950  9.67%   179  220s
 19299  3523   19.78331   34   31   21.00000   18.99307  9.56%   180  225s
 19768  3463   19.17883   33   40   21.00000   19.00000  9.52%   180  230s
 20149  3447   19.65906   37   29   21.00000   19.00000  9.52%   180  235s
 20517  3422     cutoff   37        21.00000   19.00131  9.52%   180  240s
 20823  3372     cutoff   37        21.00000   19.00988  9.48%   181  245s
*21193     3              46      20.0000000   20.00000  0.00%   181  248s

Cutting planes:
  Gomory: 8
  Cover: 18
  Implied bound: 228
  MIR: 611
  Flow cover: 1040
  Flow path: 57
  Zero half: 17
  Network: 66

Explored 21194 nodes (3832606 simplex iterations) in 248.65 seconds
Thread count was 1 (of 8 available processors)

Optimal solution found (tolerance 4.00e-02)
Best objective 2.000000000000e+01, best bound 2.000000000000e+01, gap 0.0%

Gurobi 6.5.2 (linux64) logging started Mon Jul 24 16:46:08 2017

Changed value of parameter LogFile to data/mip_solutions/chen_grossman_miller/transshipment/balanced8_gurobi.log
   Prev: gurobi.log  Default: 
Changed value of parameter Threads to 1
   Prev: 0  Min: 0  Max: 1024  Default: 0
Optimize a model with 398 rows, 1702 columns and 4835 nonzeros
Coefficient statistics:
  Matrix range    [1e+00, 5e+02]
  Objective range [1e+00, 1e+00]
  Bounds range    [1e+00, 1e+00]
  RHS range       [1e+00, 2e+02]
Presolve removed 190 rows and 1130 columns
Presolve time: 0.00s
Presolved: 208 rows, 572 columns, 1494 nonzeros
Variable types: 490 continuous, 82 integer (82 binary)

Root relaxation: objective 1.275527e+01, 1003 iterations, 0.01 seconds

    Nodes    |    Current Node    |     Objective Bounds      |     Work
 Expl Unexpl |  Obj  Depth IntInf | Incumbent    BestBd   Gap | It/Node Time

     0     0   12.75527    0   23          -   12.75527      -     -    0s
H    0     0                      27.0000000   12.75527  52.8%     -    0s
     0     0   13.77281    0   41   27.00000   13.77281  49.0%     -    0s
     0     0   13.83341    0   37   27.00000   13.83341  48.8%     -    0s
     0     0   14.11442    0   46   27.00000   14.11442  47.7%     -    0s
     0     0   14.53655    0   50   27.00000   14.53655  46.2%     -    0s
     0     0   15.80427    0   47   27.00000   15.80427  41.5%     -    0s
     0     0   15.90589    0   46   27.00000   15.90589  41.1%     -    0s
     0     0   16.08240    0   46   27.00000   16.08240  40.4%     -    0s
     0     0   16.12338    0   43   27.00000   16.12338  40.3%     -    0s
     0     0   16.24006    0   45   27.00000   16.24006  39.9%     -    0s
     0     0   16.26343    0   42   27.00000   16.26343  39.8%     -    0s
     0     0   16.39175    0   48   27.00000   16.39175  39.3%     -    0s
     0     0   16.41980    0   43   27.00000   16.41980  39.2%     -    0s
     0     0   16.43610    0   44   27.00000   16.43610  39.1%     -    0s
     0     0   16.44209    0   47   27.00000   16.44209  39.1%     -    0s
     0     0   16.45236    0   45   27.00000   16.45236  39.1%     -    0s
     0     0   16.45236    0   42   27.00000   16.45236  39.1%     -    0s
     0     2   16.45459    0   42   27.00000   16.45459  39.1%     -    0s
H   88    81                      26.0000000   16.54046  36.4%  68.0    0s
H   94    87                      25.0000000   16.54046  33.8%  63.9    0s
H  162   144                      24.0000000   16.54784  31.1%  67.1    0s

Cutting planes:
  Cover: 20
  Implied bound: 181
  MIR: 179
  Flow cover: 345
  Flow path: 29
  Network: 7

Explored 496 nodes (47032 simplex iterations) in 2.00 seconds
Thread count was 1 (of 8 available processors)

Time limit reached
Best objective 2.400000000000e+01, best bound 1.700000000000e+01, gap 29.1667%

Gurobi 6.5.2 (linux64) logging started Mon Jul 24 16:59:02 2017

Changed value of parameter LogFile to data/mip_solutions/chen_grossman_miller/transshipment/balanced8_gurobi.log
   Prev: gurobi.log  Default: 
Changed value of parameter Threads to 1
   Prev: 0  Min: 0  Max: 1024  Default: 0
Optimize a model with 398 rows, 1702 columns and 4835 nonzeros
Coefficient statistics:
  Matrix range    [1e+00, 5e+02]
  Objective range [1e+00, 1e+00]
  Bounds range    [1e+00, 1e+00]
  RHS range       [1e+00, 2e+02]
Presolve removed 190 rows and 1130 columns
Presolve time: 0.00s
Presolved: 208 rows, 572 columns, 1494 nonzeros
Variable types: 490 continuous, 82 integer (82 binary)

Root relaxation: objective 1.275527e+01, 1003 iterations, 0.01 seconds

    Nodes    |    Current Node    |     Objective Bounds      |     Work
 Expl Unexpl |  Obj  Depth IntInf | Incumbent    BestBd   Gap | It/Node Time

     0     0   12.75527    0   23          -   12.75527      -     -    0s
H    0     0                      27.0000000   12.75527  52.8%     -    0s
     0     0   13.77281    0   41   27.00000   13.77281  49.0%     -    0s
     0     0   13.83341    0   37   27.00000   13.83341  48.8%     -    0s
     0     0   14.11442    0   46   27.00000   14.11442  47.7%     -    0s
     0     0   14.53655    0   50   27.00000   14.53655  46.2%     -    0s
     0     0   15.80427    0   47   27.00000   15.80427  41.5%     -    0s
     0     0   15.90589    0   46   27.00000   15.90589  41.1%     -    0s
     0     0   16.08240    0   46   27.00000   16.08240  40.4%     -    0s
     0     0   16.12338    0   43   27.00000   16.12338  40.3%     -    0s
     0     0   16.24006    0   45   27.00000   16.24006  39.9%     -    0s
     0     0   16.26343    0   42   27.00000   16.26343  39.8%     -    0s
     0     0   16.39175    0   48   27.00000   16.39175  39.3%     -    0s
     0     0   16.41980    0   43   27.00000   16.41980  39.2%     -    0s
     0     0   16.43610    0   44   27.00000   16.43610  39.1%     -    0s
     0     0   16.44209    0   47   27.00000   16.44209  39.1%     -    0s
     0     0   16.45236    0   45   27.00000   16.45236  39.1%     -    0s
     0     0   16.45236    0   42   27.00000   16.45236  39.1%     -    0s
     0     2   16.45459    0   42   27.00000   16.45459  39.1%     -    0s
H   88    81                      26.0000000   16.54046  36.4%  68.0    0s
H   94    87                      25.0000000   16.54046  33.8%  63.9    0s
H  162   144                      24.0000000   16.54784  31.1%  67.1    0s
H  527   398                      21.0000000   17.50000  16.7%  83.2    2s

Cutting planes:
  Cover: 11
  Implied bound: 67
  MIR: 79
  Flow cover: 128
  Flow path: 5
  Zero half: 3
  Network: 13

Explored 528 nodes (61485 simplex iterations) in 3.00 seconds
Thread count was 1 (of 8 available processors)

Time limit reached
Best objective 2.100000000000e+01, best bound 1.800000000000e+01, gap 14.2857%

Gurobi 6.5.2 (linux64) logging started Wed Jul 26 17:43:35 2017

Changed value of parameter LogFile to data/mip_solutions/chen_grossman_miller/transshipment/balanced8_gurobi.log
   Prev: gurobi.log  Default: 
Changed value of parameter Threads to 1
   Prev: 0  Min: 0  Max: 1024  Default: 0
Optimize a model with 398 rows, 1702 columns and 4835 nonzeros
Coefficient statistics:
  Matrix range    [1e+00, 5e+02]
  Objective range [1e+00, 1e+00]
  Bounds range    [1e+00, 1e+00]
  RHS range       [1e+00, 2e+02]
Presolve removed 190 rows and 1130 columns
Presolve time: 0.00s
Presolved: 208 rows, 572 columns, 1494 nonzeros
Variable types: 490 continuous, 82 integer (82 binary)

Root relaxation: objective 1.275527e+01, 1003 iterations, 0.01 seconds

    Nodes    |    Current Node    |     Objective Bounds      |     Work
 Expl Unexpl |  Obj  Depth IntInf | Incumbent    BestBd   Gap | It/Node Time

     0     0   12.75527    0   23          -   12.75527      -     -    0s
H    0     0                      27.0000000   12.75527  52.8%     -    0s
     0     0   13.77281    0   41   27.00000   13.77281  49.0%     -    0s
     0     0   13.83341    0   37   27.00000   13.83341  48.8%     -    0s
     0     0   14.11442    0   46   27.00000   14.11442  47.7%     -    0s
     0     0   14.53655    0   50   27.00000   14.53655  46.2%     -    0s
     0     0   15.80427    0   47   27.00000   15.80427  41.5%     -    0s
     0     0   15.90589    0   46   27.00000   15.90589  41.1%     -    0s
     0     0   16.08240    0   46   27.00000   16.08240  40.4%     -    0s
     0     0   16.12338    0   43   27.00000   16.12338  40.3%     -    0s
     0     0   16.24006    0   45   27.00000   16.24006  39.9%     -    0s
     0     0   16.26343    0   42   27.00000   16.26343  39.8%     -    0s
     0     0   16.39175    0   48   27.00000   16.39175  39.3%     -    0s
     0     0   16.41980    0   43   27.00000   16.41980  39.2%     -    0s
     0     0   16.43610    0   44   27.00000   16.43610  39.1%     -    0s
     0     0   16.44209    0   47   27.00000   16.44209  39.1%     -    0s
     0     0   16.45236    0   45   27.00000   16.45236  39.1%     -    0s
     0     0   16.45236    0   42   27.00000   16.45236  39.1%     -    0s
     0     2   16.45459    0   42   27.00000   16.45459  39.1%     -    0s
H   88    81                      26.0000000   16.54046  36.4%  68.0    0s
H   94    87                      25.0000000   16.54046  33.8%  63.9    0s
H  162   144                      24.0000000   16.54784  31.1%  67.1    0s
H  527   398                      21.0000000   17.50000  16.7%  83.2    2s
   658   454   17.98105   14   42   21.00000   17.97638  14.4%   133    5s
  1285   608   18.00000   23   39   21.00000   18.00000  14.3%   150   10s
  2029   820   19.42020   31   30   21.00000   18.10058  13.8%   148   15s
  2569  1040   18.77927   26   35   21.00000   18.19033  13.4%   151   20s
  3279  1335   18.59847   20   36   21.00000   18.28306  12.9%   150   25s
  3964  1585   19.98645   31   27   21.00000   18.35831  12.6%   149   30s
  4794  1920   19.00000   25   17   21.00000   18.46099  12.1%   145   35s
  5495  2185   19.60080   30   27   21.00000   18.51168  11.8%   144   40s
  6237  2450   19.08426   21   33   21.00000   18.56522  11.6%   143   45s
  6875  2680   19.04613   31   24   21.00000   18.60325  11.4%   143   50s
  7691  2943   19.24833   28   27   21.00000   18.68335  11.0%   141   55s
  8454  3182   19.59829   28   14   21.00000   18.77047  10.6%   139   60s
  9250  3390   19.41301   24   31   21.00000   18.84713  10.3%   137   65s
 10119  3593     cutoff   34        21.00000   18.93807  9.82%   135   70s
 10203  3618   19.53850   23   42   21.00000   18.94176  9.80%   135   76s
 10247  3647   19.10799   30   50   21.00000   18.94176  9.80%   134   80s
 10284  3672   19.50000   25   38   21.00000   18.94176  9.80%   134   85s
 10312  3691   19.55634   34   37   21.00000   18.94176  9.80%   133   90s
 10331  3703   19.25786   30   48   21.00000   18.94176  9.80%   133   95s
 10348  3715   19.19505   27   48   21.00000   18.94176  9.80%   133  100s
 10410  3734   18.94176   24   46   21.00000   18.94176  9.80%   157  106s
 10593  3816   19.33233   44   15   21.00000   18.94176  9.80%   158  110s
 10919  3874   18.94176   35   37   21.00000   18.94176  9.80%   158  115s
 11272  3946   18.94176   29   35   21.00000   18.94176  9.80%   160  120s
 11699  3976     cutoff   42        21.00000   18.94176  9.80%   161  125s
 12221  4017   19.98639   37   19   21.00000   18.94176  9.80%   162  130s
 12633  4039   19.66938   35   31   21.00000   18.94176  9.80%   163  135s
 12974  4035   19.07576   31   37   21.00000   18.94176  9.80%   164  140s
 13336  4027     cutoff   39        21.00000   18.94176  9.80%   166  145s
 13725  4015   19.99828   39   28   21.00000   18.94176  9.80%   168  150s
 14122  4010   19.38942   35   26   21.00000   18.94176  9.80%   169  155s
 14548  4009   19.66093   37   34   21.00000   18.94176  9.80%   169  160s
 14975  3999   18.94176   30   41   21.00000   18.94176  9.80%   170  165s
 15344  3969   19.29094   41   29   21.00000   18.94176  9.80%   171  170s
 15655  3949     cutoff   36        21.00000   18.94176  9.80%   172  175s
 16057  3904   19.53899   39   37   21.00000   18.94176  9.80%   174  180s
 16539  3859     cutoff   44        21.00000   18.94176  9.80%   174  185s
 16928  3834     cutoff   33        21.00000   18.94176  9.80%   175  190s
 17273  3791   20.00000   37   23   21.00000   18.94176  9.80%   176  195s
 17738  3731     cutoff   53        21.00000   18.94176  9.80%   176  200s
 18070  3695   20.00000   44   15   21.00000   18.94176  9.80%   177  205s
 18384  3666   19.38450   32   35   21.00000   18.94176  9.80%   178  210s
 18671  3636     cutoff   40        21.00000   18.95266  9.75%   179  215s
 19047  3567   19.55333   30   45   21.00000   18.97156  9.66%   179  220s
 19368  3509   19.17497   33   34   21.00000   18.99644  9.54%   180  225s
 19800  3462   19.52621   37   30   21.00000   19.00000  9.52%   180  230s
 20197  3442   19.79704   34   27   21.00000   19.00000  9.52%   180  235s
 20548  3413   19.94249   45   20   21.00000   19.00163  9.52%   180  240s
 20878  3363     cutoff   36        21.00000   19.01184  9.47%   181  245s
*21193     3              46      20.0000000   20.00000  0.00%   181  247s

Cutting planes:
  Gomory: 8
  Cover: 18
  Implied bound: 228
  MIR: 611
  Flow cover: 1040
  Flow path: 57
  Zero half: 17
  Network: 66

Explored 21194 nodes (3832606 simplex iterations) in 247.98 seconds
Thread count was 1 (of 8 available processors)

Optimal solution found (tolerance 4.00e-02)
Best objective 2.000000000000e+01, best bound 2.000000000000e+01, gap 0.0%
